p cnf 134 164
7 19 24 51 0
7 19 24 -51 0
7 -19 26 52 0
7 -19 26 -52 0
7 24 -26 53 0
7 24 -26 -53 0
7 22 -24 54 0
7 22 -24 -54 0
-7 22 46 55 0
-7 22 46 -55 0
-7 22 -46 56 0
-7 22 -46 -56 0
8 -22 -27 57 0
8 -22 -27 -57 0
-8 -22 -27 58 0
-8 -22 -27 -58 0
-22 27 43 59 0
-22 27 43 -59 0
9 27 -50 60 0
9 27 -50 -60 0
-9 -43 -50 61 0
-9 -43 -50 -61 0
38 -43 50 62 0
38 -43 50 -62 0
34 -38 50 63 0
34 -38 50 -63 0
-34 -38 -41 64 0
-34 -38 -41 -64 0
-34 41 -46 65 0
-34 41 -46 -65 0
-17 -34 41 66 0
-17 -34 41 -66 0
-6 17 -34 67 0
-6 17 -34 -67 0
-4 6 17 68 0
-4 6 17 -68 0
4 6 16 69 0
4 6 16 -69 0
4 -16 40 70 0
4 -16 40 -70 0
-16 19 -40 71 0
-16 19 -40 -71 0
-16 29 -40 72 0
-16 29 -40 -72 0
-19 -29 45 73 0
-19 -29 45 -73 0
24 -29 -36 74 0
24 -29 -36 -74 0
-24 -36 -45 75 0
-24 -36 -45 -75 0
7 36 -45 76 0
7 36 -45 -76 0
-15 36 -45 77 0
-15 36 -45 -77 0
-2 15 36 78 0
-2 15 36 -78 0
2 15 30 79 0
2 15 30 -79 0
2 -30 35 80 0
2 -30 35 -80 0
-8 -30 -35 81 0
-8 -30 -35 -81 0
8 -35 -47 82 0
8 -35 -47 -82 0
8 -28 47 83 0
8 -28 47 -83 0
28 33 47 84 0
28 33 47 -84 0
28 -33 37 85 0
28 -33 37 -85 0
-21 -33 -37 86 0
-21 -33 -37 -86 0
-14 21 -37 87 0
-14 21 -37 -87 0
14 21 44 88 0
14 21 44 -88 0
-9 14 -44 89 0
-9 14 -44 -89 0
9 -13 -44 90 0
9 -13 -44 -90 0
13 31 -44 91 0
13 31 -44 -91 0
13 -31 42 92 0
13 -31 42 -92 0
-18 -31 -42 93 0
-18 -31 -42 -93 0
-12 18 -42 94 0
-12 18 -42 -94 0
12 18 -48 95 0
12 18 -48 -95 0
-1 12 18 96 0
-1 12 18 -96 0
1 48 -49 97 0
1 48 -49 -97 0
1 -32 49 98 0
1 -32 49 -98 0
1 -11 49 99 0
1 -11 49 -99 0
1 3 49 100 0
1 3 49 -100 0
5 11 44 101 0
5 11 44 -101 0
-3 5 11 102 0
-3 5 11 -102 0
-3 -5 -20 103 0
-3 -5 -20 -103 0
-5 20 -25 104 0
-5 20 -25 -104 0
-5 23 25 105 0
-5 23 25 -105 0
-23 25 -39 106 0
-23 25 -39 -106 0
10 -23 25 107 0
10 -23 25 -107 0
-10 -26 39 108 0
-10 -26 39 -108 0
-10 24 26 109 0
-10 24 26 -109 0
-18 38 48 110 0
-18 38 48 -110 0
31 35 39 111 0
31 35 39 -111 0
-36 38 112 113 0
-36 38 112 -113 0
-36 38 -112 114 0
-36 38 -112 -114 0
-2 -6 37 115 0
-2 -6 37 -115 0
34 -39 -47 116 0
34 -39 -47 -116 0
-2 3 -28 117 0
-2 3 -28 -117 0
-19 -20 42 118 0
-19 -20 42 -118 0
16 32 -49 119 0
16 32 -49 -119 0
-25 -27 46 120 0
-25 -27 46 -120 0
-12 16 31 121 0
-12 16 31 -121 0
-2 -4 43 122 0
-2 -4 43 -122 0
-1 23 32 123 0
-1 23 32 -123 0
10 -17 40 124 0
10 -17 40 -124 0
-21 34 45 125 0
-21 34 45 -125 0
20 -21 30 126 0
20 -21 30 -126 0
5 -13 33 127 0
5 -13 33 -127 0
-15 -48 128 129 0
-15 -48 128 -129 0
-15 -48 -128 130 0
-15 -48 -128 -130 0
-14 29 37 131 0
-14 29 37 -131 0
3 -14 -47 132 0
3 -14 -47 -132 0
-11 35 37 133 0
-11 35 37 -133 0
10 -32 -41 134 0
10 -32 -41 -134 0

